11
2147483647 38 52 90 61 62 95 69 52 88 64 
38 2147483647 87 44 46 4 88 98 20 62 98 
52 87 2147483647 4 12 64 36 100 70 83 43 
90 44 4 2147483647 37 58 100 15 58 100 59 
61 46 12 37 2147483647 39 42 82 94 14 37 
62 4 64 58 39 2147483647 25 73 19 45 58 
95 88 36 100 42 25 2147483647 77 67 89 97 
69 98 100 15 82 73 77 2147483647 25 63 63 
52 20 70 58 94 19 67 25 2147483647 36 87 
88 62 83 100 14 45 89 63 36 2147483647 75 
64 98 43 59 37 58 97 63 87 75 2147483647 
